words_hard_train/6281.qaiger
aag 127 16 0 1 111
2
4
8
12
16
20
24
96
112
122
132
142
158
174
224
226
254
6 3 5
10 6 9
14 10 13
18 14 17
22 18 21
26 23 24
28 22 25
30 27 29
32 15 16
34 33 19
36 7 8
38 37 11
40 2 4
42 36 41
44 39 43
46 11 12
48 47 15
50 44 49
52 35 50
54 19 20
56 55 23
58 53 56
60 30 58
62 31 59
64 61 63
66 34 51
68 67 53
70 45 48
72 71 51
74 41 7
76 74 3
78 38 75
80 79 43
82 76 81
84 72 82
86 68 84
88 86 56
90 65 89
92 64 88
94 91 93
98 95 97
100 94 96
102 99 101
104 59 87
106 52 57
108 104 107
110 109 89
114 110 112
116 102 114
118 103 115
120 117 119
124 123 4
126 122 5
128 125 127
130 128 2
134 130 132
136 135 127
138 77 80
140 139 83
144 141 143
146 140 142
148 145 147
150 137 148
152 151 147
154 73 83
156 155 85
160 157 159
162 156 158
164 161 163
166 153 164
168 167 163
170 69 85
172 171 87
176 173 175
178 172 174
180 177 179
182 169 180
184 183 179
186 111 113
188 187 115
190 184 189
192 120 191
194 152 165
196 195 167
198 129 133
200 198 3
202 201 135
204 136 149
206 205 151
208 203 207
210 196 209
212 168 181
214 213 183
216 211 215
218 185 188
220 217 219
222 192 220
228 224 226
230 225 227
232 229 231
234 232 29
236 233 28
238 235 237
240 93 63
242 239 241
244 238 240
246 243 245
248 247 100
250 246 101
252 249 251
254 222 252
i0 2 y2[0]
i1 2 y2[1]
i2 2 y2[2]
i3 2 y2[3]
i4 2 y2[4]
i5 2 y2[5]
i6 2 y2[6]
i7 1 x1[1]
i8 1 x1[2]
i9 1 x1[6]
i10 1 x1[7]
i11 1 x1[5]
i12 1 x1[4]
i13 1 x1[3]
i14 1 x1[0]
i15 2 y2[7]
o0 bv[0]
c
simplified
  >
    subtract
      reverse
        1 x1
      subtract
        -34
        2 y2
    104
