words_hard_train/6281.qaiger.qdimacs
p cnf 127 334
a 66 71 79 48 112 87 56 61 0
e 1 2 3 4 5 6 7 8 9 10 11 12 13 14 15 16 17 18 19 20 21 22 23 24 25 26 27 28 29 30 31 32 33 34 35 36 37 38 39 40 41 42 43 44 45 46 47 49 50 51 52 53 54 55 57 58 59 60 62 63 64 65 67 68 69 70 72 73 74 75 76 77 78 80 81 82 83 84 85 86 88 89 90 91 92 93 94 95 96 97 98 99 100 101 102 103 104 105 106 107 108 109 110 111 113 114 115 116 117 118 119 120 121 122 123 124 125 126 127 0
1 2 3 0
-1 -3 0
-2 -3 0
-3 4 5 0
3 -5 0
-4 -5 0
-5 6 7 0
5 -7 0
-6 -7 0
-7 8 9 0
7 -9 0
-8 -9 0
-9 10 11 0
9 -11 0
-10 -11 0
11 -12 13 0
-11 -13 0
12 -13 0
-11 12 14 0
11 -14 0
-12 -14 0
13 14 15 0
-13 -15 0
-14 -15 0
7 -8 16 0
-7 -16 0
8 -16 0
16 9 17 0
-16 -17 0
-9 -17 0
3 -4 18 0
-3 -18 0
4 -18 0
18 5 19 0
-18 -19 0
-5 -19 0
-1 -2 20 0
1 -20 0
2 -20 0
-18 20 21 0
18 -21 0
-20 -21 0
19 21 22 0
-19 -22 0
-21 -22 0
5 -6 23 0
-5 -23 0
6 -23 0
23 7 24 0
-23 -24 0
-7 -24 0
-22 24 25 0
22 -25 0
-24 -25 0
17 -25 26 0
-17 -26 0
25 -26 0
9 -10 27 0
-9 -27 0
10 -27 0
27 11 28 0
-27 -28 0
-11 -28 0
26 -28 29 0
-26 -29 0
28 -29 0
-15 -29 30 0
15 -30 0
29 -30 0
15 29 31 0
-15 -31 0
-29 -31 0
30 31 32 0
-30 -32 0
-31 -32 0
-17 25 33 0
17 -33 0
-25 -33 0
33 26 34 0
-33 -34 0
-26 -34 0
22 -24 35 0
-22 -35 0
24 -35 0
35 25 36 0
-35 -36 0
-25 -36 0
20 3 37 0
-20 -37 0
-3 -37 0
-37 1 38 0
37 -38 0
-1 -38 0
-19 37 39 0
19 -39 0
-37 -39 0
39 21 40 0
-39 -40 0
-21 -40 0
-38 40 41 0
38 -41 0
-40 -41 0
-36 -41 42 0
36 -42 0
41 -42 0
-34 -42 43 0
34 -43 0
42 -43 0
-43 -28 44 0
43 -44 0
28 -44 0
32 44 45 0
-32 -45 0
-44 -45 0
-32 -44 46 0
32 -46 0
44 -46 0
45 46 47 0
-45 -47 0
-46 -47 0
47 48 49 0
-47 -49 0
-48 -49 0
-47 -48 50 0
47 -50 0
48 -50 0
49 50 51 0
-49 -51 0
-50 -51 0
29 43 52 0
-29 -52 0
-43 -52 0
-26 28 53 0
26 -53 0
-28 -53 0
-52 53 54 0
52 -54 0
-53 -54 0
54 44 55 0
-54 -55 0
-44 -55 0
-55 -56 57 0
55 -57 0
56 -57 0
-51 -57 58 0
51 -58 0
57 -58 0
51 57 59 0
-51 -59 0
-57 -59 0
58 59 60 0
-58 -60 0
-59 -60 0
61 -2 62 0
-61 -62 0
2 -62 0
-61 2 63 0
61 -63 0
-2 -63 0
62 63 64 0
-62 -64 0
-63 -64 0
-64 -1 65 0
64 -65 0
1 -65 0
-65 -66 67 0
65 -67 0
66 -67 0
67 63 68 0
-67 -68 0
-63 -68 0
38 -40 69 0
-38 -69 0
40 -69 0
69 41 70 0
-69 -70 0
-41 -70 0
70 71 72 0
-70 -72 0
-71 -72 0
-70 -71 73 0
70 -73 0
71 -73 0
72 73 74 0
-72 -74 0
-73 -74 0
68 -74 75 0
-68 -75 0
74 -75 0
75 73 76 0
-75 -76 0
-73 -76 0
36 41 77 0
-36 -77 0
-41 -77 0
77 42 78 0
-77 -78 0
-42 -78 0
78 79 80 0
-78 -80 0
-79 -80 0
-78 -79 81 0
78 -81 0
79 -81 0
80 81 82 0
-80 -82 0
-81 -82 0
76 -82 83 0
-76 -83 0
82 -83 0
83 81 84 0
-83 -84 0
-81 -84 0
34 42 85 0
-34 -85 0
-42 -85 0
85 43 86 0
-85 -86 0
-43 -86 0
86 87 88 0
-86 -88 0
-87 -88 0
-86 -87 89 0
86 -89 0
87 -89 0
88 89 90 0
-88 -90 0
-89 -90 0
84 -90 91 0
-84 -91 0
90 -91 0
91 89 92 0
-91 -92 0
-89 -92 0
55 56 93 0
-55 -93 0
-56 -93 0
93 57 94 0
-93 -94 0
-57 -94 0
-92 94 95 0
92 -95 0
-94 -95 0
-60 95 96 0
60 -96 0
-95 -96 0
-76 82 97 0
76 -97 0
-82 -97 0
97 83 98 0
-97 -98 0
-83 -98 0
64 66 99 0
-64 -99 0
-66 -99 0
-99 1 100 0
99 -100 0
-1 -100 0
100 67 101 0
-100 -101 0
-67 -101 0
-68 74 102 0
68 -102 0
-74 -102 0
102 75 103 0
-102 -103 0
-75 -103 0
101 103 104 0
-101 -104 0
-103 -104 0
-98 104 105 0
98 -105 0
-104 -105 0
-84 90 106 0
84 -106 0
-90 -106 0
106 91 107 0
-106 -107 0
-91 -107 0
105 107 108 0
-105 -108 0
-107 -108 0
92 -94 109 0
-92 -109 0
94 -109 0
108 109 110 0
-108 -110 0
-109 -110 0
-96 -110 111 0
96 -111 0
110 -111 0
-112 -113 114 0
112 -114 0
113 -114 0
112 113 115 0
-112 -115 0
-113 -115 0
114 115 116 0
-114 -116 0
-115 -116 0
-116 14 117 0
116 -117 0
-14 -117 0
116 -14 118 0
-116 -118 0
14 -118 0
117 118 119 0
-117 -119 0
-118 -119 0
46 31 120 0
-46 -120 0
-31 -120 0
119 120 121 0
-119 -121 0
-120 -121 0
-119 -120 122 0
119 -122 0
120 -122 0
121 122 123 0
-121 -123 0
-122 -123 0
123 -50 124 0
-123 -124 0
50 -124 0
-123 50 125 0
123 -125 0
-50 -125 0
124 125 126 0
-124 -126 0
-125 -126 0
-111 -126 127 0
111 -127 0
126 -127 0
127 0
